76178140023066174405010,6,1,2,014,4,1,2,01,4,1,2,014,1,1,2,03,13,1,2,03,9,1,2,010,7,1,2,014,2,1,2,014,3,1,2,05,12,1,2,08,1,1,2,015,9,1,2,012,10,1,2,04,11,1,2,01,15,1,2,02,4,1,2,015,7,1,2,010,10,1,2,011,13,1,2,015,6,1,2,015,10,1,2,014,12,1,2,013,6,1,2,07,12,1,2,02,4,1,2,06,10,1,2,07,3,1,2,010,15,1,2,03,15,1,2,012,6,1,2,01,1,1,2,08,11,1,2,013,9,1,2,09,8,1,2,02,4,1,2,07,2,1,2,05,13,1,2,08,1,1,2,011,9,1,2,05,8,1,2,012,9,1,2,07,8,1,2,09,7,1,2,03,8,1,2,09,9,1,2,02,12,1,2,04,2,1,2,04,5,1,2,013,6,1,2,03,3,1,2,0